param n := 5;
param m := 5;

param	C :=
		1	1
		2	1
		3	1
		4	1
		5	1
	;
param	A:	1	2	3	4	5:=
		1	1	1	0	0	0	
		2	1	1	0	0	1	
		3	0	0	1	1	0
		4	0	0	1	1	1	
		5	0	1	0	1	1;
param	B :=
		1	1
		2	1
		3	1
		4	1
		5	1;		